p edge 4 16 4
1 1 0.437606 
2 1 0.168721 
3 1 0.078039 
4 1 0.137430 
1 2 0.215121 
2 2 0.606542 
3 2 0.185901 
4 2 0.033696 
1 3 0.091387 
2 3 0.174607 
3 3 0.493428 
4 3 0.148882 
1 4 0.255887 
2 4 0.050130 
3 4 0.242633 
4 4 0.679992 
sd
0.188321 
0.237238 
0.219935 
0.354507 
